NAME: random_60_2
TYPE: TSP
COMMENT: random_60_2
DIMENSION: 60
EDGE_WEIGHT_TYPE: EUC_2D
NODE_COORD_SECTION
1 161 89
2 450 131
3 328 258
4 5 50
5 265 4
6 334 19
7 55 289
8 5 201
9 418 198
10 156 347
11 89 350
12 245 425
13 255 221
14 369 234
15 151 270
16 14 90
17 263 351
18 379 481
19 234 261
20 22 264
21 146 399
22 31 361
23 398 173
24 453 310
25 235 200
26 460 328
27 19 162
28 211 491
29 328 427
30 446 40
31 225 447
32 141 154
33 338 51
34 223 127
35 409 233
36 214 216
37 438 394
38 441 461
39 419 125
40 494 49
41 402 91
42 430 287
43 90 251
44 27 412
45 104 187
46 478 275
47 201 102
48 128 371
49 461 272
50 428 166
51 119 121
52 332 335
53 139 260
54 323 318
55 16 301
56 486 101
57 474 183
58 41 412
59 235 391
60 234 304
